row=6;
column=6;
Board=[|3,4,2,6,5,1|1,3,5,2,4,6|5,6,3,1,2,4|2,1,4,5,6,3|6,5,1,4,3,2|4,2,6,3,1,5|];
horizontal=[|0,1,0,1,1|0,0,1,0,0|0,1,1,0,0|1,0,0,0,1|1,1,0,1,1|1,0,1,1,0|];
vertical=[|1,1,0,1,1,0|0,0,1,1,1,1|1,1,0,0,0,1|0,0,1,1,1,1|1,1,0,1,1,0|];
